nNurses = 175;
nHours = 29;
minHours = 7;
maxHours = 8;
maxConsec = 8;
maxPresence = 26;
demand = [15, 14, 13, 9, 7, 12, 16, 16, 18, 17, 19, 18, 16, 11, 9, 7, 10, 14, 11, 7, 6, 11, 6, 11, 12, 15, 18, 13, 14];
